2
300 5
60
27 1 92
71 1 90
65 1 44
99 1 76
95 1 42
7 1 31
26 1 65
74 1 99
6 1 24
10 1 60
9 1 63
59 1 23
49 1 60
1 1 32
69 1 27
44 1 67
47 1 8
35 1 38
95 1 79
50 1 89
56 1 54
2 1 98
9 1 75
34 1 76
64 1 22
23 1 68
67 1 4
83 1 52
94 1 67
56 1 38
57 1 87
20 1 71
100 1 77
87 1 29
2 1 81
1 1 23
73 1 76
40 1 97
57 1 74
15 1 30
33 1 19
70 1 31
12 1 89
83 1 47
38 1 94
66 1 54
88 1 80
62 1 63
75 1 24
49 1 20
42 1 38
40 1 1
66 1 65
77 1 18
61 1 83
39 1 16
69 1 5
37 1 72
68 1 73
16 1 97
